VALUE 457
80 81
99 100
100 101
101 102
102 103
103 104
104 105
105 106
106 107
107 108
108 109
80 109
99 129
129 159
159 185
202 230
210 211
185 211
230 259
238 239
239 240
210 240
259 284
238 266
281 305
284 309
266 289
305 306
306 307
307 334
308 336
309 338
313 342
289 315
334 335
335 336
336 337
337 338
338 339
339 340
340 341
341 342
342 343
343 344
344 345
345 346
315 346
346 377
377 408
408 438
438 467
467 496
496 497

